Using license file /home/benedond/gurobi.lic
Using gurobi.env file
Set parameter Threads to value 1
Academic license - for non-commercial use only
Changed value of parameter TimeLimit to 300.0
   Prev: inf  Min: 0.0  Max: inf  Default: inf
Gurobi Optimizer version 9.0.1 build v9.0.1rc0 (linux64)
Optimize a model with 1508 rows, 1382 columns and 6624 nonzeros
Model fingerprint: 0x601f8d4f
Variable types: 50 continuous, 1332 integer (1332 binary)
Coefficient statistics:
  Matrix range     [2e-01, 3e+02]
  Objective range  [1e-02, 3e-01]
  Bounds range     [1e+00, 1e+00]
  RHS range        [1e+00, 1e+03]
Presolve removed 72 rows and 53 columns
Presolve time: 0.04s
Presolved: 1436 rows, 1329 columns, 6383 nonzeros
Variable types: 49 continuous, 1280 integer (1280 binary)

Root relaxation: objective 2.005689e+00, 1608 iterations, 0.06 seconds

    Nodes    |    Current Node    |     Objective Bounds      |     Work
 Expl Unexpl |  Obj  Depth IntInf | Incumbent    BestBd   Gap | It/Node Time

     0     0    2.00569    0  163          -    2.00569      -     -    0s
     0     0    2.14550    0  114          -    2.14550      -     -    0s
     0     0    2.15200    0  130          -    2.15200      -     -    0s
     0     0    2.27045    0  133          -    2.27045      -     -    0s
H    0     0                       4.2204474    2.27045  46.2%     -    0s
H    0     0                       3.3744035    2.27045  32.7%     -    0s
H    0     0                       3.2623421    2.27045  30.4%     -    0s
     0     0    2.28848    0  133    3.26234    2.28848  29.9%     -    0s
     0     0    2.34282    0  141    3.26234    2.34282  28.2%     -    0s
     0     0    2.38556    0  149    3.26234    2.38556  26.9%     -    0s
     0     0    2.39535    0  145    3.26234    2.39535  26.6%     -    0s
     0     0    2.39872    0  137    3.26234    2.39872  26.5%     -    0s
     0     0    2.40065    0  167    3.26234    2.40065  26.4%     -    0s
     0     0    2.40143    0  143    3.26234    2.40143  26.4%     -    0s
     0     0    2.40150    0  151    3.26234    2.40150  26.4%     -    0s
     0     0    2.44324    0  135    3.26234    2.44324  25.1%     -    0s
     0     0    2.45794    0  128    3.26234    2.45794  24.7%     -    1s
     0     0    2.46055    0  124    3.26234    2.46055  24.6%     -    1s
     0     0    2.46112    0  124    3.26234    2.46112  24.6%     -    1s
     0     0    2.46116    0  130    3.26234    2.46116  24.6%     -    1s
     0     0    2.47586    0  150    3.26234    2.47586  24.1%     -    1s
     0     0    2.47755    0  121    3.26234    2.47755  24.1%     -    1s
     0     0    2.47766    0  128    3.26234    2.47766  24.1%     -    1s
     0     0    2.48630    0  125    3.26234    2.48630  23.8%     -    1s
     0     0    2.49000    0  140    3.26234    2.49000  23.7%     -    1s
     0     0    2.49083    0  120    3.26234    2.49083  23.6%     -    1s
     0     0    2.49099    0  120    3.26234    2.49099  23.6%     -    1s
     0     0    2.50238    0  134    3.26234    2.50238  23.3%     -    1s
     0     0    2.50453    0  146    3.26234    2.50453  23.2%     -    1s
     0     0    2.50524    0  151    3.26234    2.50524  23.2%     -    1s
     0     0    2.50545    0  141    3.26234    2.50545  23.2%     -    1s
     0     0    2.51459    0  160    3.26234    2.51459  22.9%     -    1s
     0     0    2.51725    0  164    3.26234    2.51725  22.8%     -    1s
     0     0    2.51858    0  194    3.26234    2.51858  22.8%     -    1s
     0     0    2.51905    0  173    3.26234    2.51905  22.8%     -    1s
     0     0    2.51928    0  197    3.26234    2.51928  22.8%     -    1s
     0     0    2.52229    0  157    3.26234    2.52229  22.7%     -    1s
     0     0    2.52317    0  171    3.26234    2.52317  22.7%     -    1s
     0     0    2.52339    0  183    3.26234    2.52339  22.7%     -    1s
     0     0    2.52716    0  130    3.26234    2.52716  22.5%     -    1s
     0     0    2.52780    0  152    3.26234    2.52780  22.5%     -    1s
     0     0    2.52831    0  166    3.26234    2.52831  22.5%     -    1s
     0     0    2.52884    0  159    3.26234    2.52884  22.5%     -    1s
     0     0    2.52916    0  151    3.26234    2.52916  22.5%     -    1s
     0     0    2.53131    0  171    3.26234    2.53131  22.4%     -    1s
     0     0    2.53197    0  143    3.26234    2.53197  22.4%     -    1s
     0     0    2.53286    0  143    3.26234    2.53286  22.4%     -    1s
     0     0    2.53316    0  156    3.26234    2.53316  22.4%     -    2s
     0     0    2.53621    0  145    3.26234    2.53621  22.3%     -    2s
     0     0    2.53647    0  178    3.26234    2.53647  22.2%     -    2s
     0     0    2.53881    0  161    3.26234    2.53881  22.2%     -    2s
     0     0    2.53881    0  155    3.26234    2.53881  22.2%     -    2s
     0     2    2.53898    0  155    3.26234    2.53898  22.2%     -    2s
H   54    52                       3.1837193    2.54684  20.0%   150    4s
   109   109    2.93609   92   65    3.18372    2.54684  20.0%   104    5s
H  172   138                       3.0874825    2.55749  17.2%   100    6s
H  216   177                       3.0569649    2.55749  16.3%  94.6    7s
H  271   215                       3.0025614    2.55749  14.8%  86.0    7s
H  444   270                       2.9471579    2.56686  12.9%  91.1    9s
   478   290    2.57435   10   94    2.94716    2.56859  12.8%  87.9   10s
   582   367    2.89626   45  192    2.94716    2.60793  11.5%  82.8   15s
   656   417    2.64828    7  168    2.94716    2.64828  10.1%  73.4   20s
H  657   393                       2.8725702    2.64828  7.81%  73.3   21s
   676   407    2.82801   21   68    2.87257    2.65833  7.46%   109   25s
   949   409    2.76385   50  125    2.87257    2.68471  6.54%   119   30s
H 1040   377                       2.8725702    2.68619  6.49%   122   31s
H 1077   367                       2.8725701    2.68619  6.49%   123   32s
  1289   415     cutoff   36         2.87257    2.70026  6.00%   125   35s
  1614   504    2.82359   39   68    2.87257    2.72348  5.19%   126   40s
H 1649   480                       2.8635351    2.72649  4.79%   125   40s
H 1727   506                       2.8635351    2.73052  4.65%   124   41s
H 1980   584                       2.8635351    2.73477  4.50%   121   44s
  1994   591    2.79169   39   79    2.86354    2.73545  4.47%   121   45s
  2485   771    2.84831   57  110    2.86354    2.74581  4.11%   116   50s
  2882   884     cutoff   41         2.86354    2.75450  3.81%   116   55s
  3221   973    2.84188   34   93    2.86354    2.76243  3.53%   116   60s
  3562  1042     cutoff   24         2.86354    2.77349  3.14%   118   65s
  4082  1145    2.83574   54   66    2.86354    2.78071  2.89%   114   70s
  4500  1171    2.79511   34  100    2.86354    2.78678  2.68%   114   75s
  4858  1162     cutoff   47         2.86354    2.79266  2.48%   116   80s
  5097  1173    2.84224   16   64    2.86354    2.79514  2.39%   116   85s
  5501  1134    2.82628   40   91    2.86354    2.80100  2.18%   116   90s
  5913  1054     cutoff   31         2.86354    2.80941  1.89%   116   95s
  6386   924    2.83887   38   67    2.86354    2.81787  1.59%   116  100s
  6993   703    2.84324   38   98    2.86354    2.82738  1.26%   114  105s
  7528   454    2.86187   33  116    2.86354    2.83752  0.91%   112  110s
* 7906   191              25       2.8553509    2.84631  0.32%   110  112s

Cutting planes:
  Gomory: 1
  Cover: 76
  Implied bound: 12
  Clique: 11
  MIR: 226
  StrongCG: 11
  Flow cover: 504
  GUB cover: 2
  Inf proof: 2
  Zero half: 1
  RLT: 21
  Relax-and-lift: 177

Explored 8103 nodes (882838 simplex iterations) in 113.12 seconds
Thread count was 1 (of 4 available processors)

Solution count 10: 2.85535 2.86354 2.87257 ... 3.3744

Optimal solution found (tolerance 1.00e-04)
Best objective 2.855350889357e+00, best bound 2.855248389237e+00, gap 0.0036%
